StudentsNr = 10;
InstructorsNr = 81;
DaysNr = 2;
SlotsPerDay = 40;
AvailabilitySlotsLenght = 40;
RoomNr = 2;
ProgrammNr = 1;
DegreeNr = 3;
RolesNr = 1;
CoursesNr = 5;
InstructorsProgramm = [{1}, {1}, {1}, {1}, {1}, {1}, {1}, {1}, {1}, {1}, {1}, {1}, {1}, {1}, {1}, {1}, {1}, {1}, {1}, {1}, {1}, {1}, {1}, {1}, {1}, {1}, {1}, {1}, {1}, {1}, {1}, {1}, {1}, {1}, {1}, {1}, {1}, {1}, {1}, {1}, {1}, {1}, {1}, {1}, {1}, {1}, {1}, {1}, {1}, {1}, {1}, {1}, {1}, {1}, {1}, {1}, {1}, {1}, {1}, {1}, {1}, {1}, {1}, {1}, {1}, {1}, {1}, {1}, {1}, {1}, {1}, {1}, {1}, {1}, {1}, {1}, {1}, {1}, {1}, {1}, {1}];
InstructorRolesPerProgramm = [|{5, 6, 21, 22, 23, 29, 30, 35, 38, 42, 43, 44, 46, 48, 49, 51, 54, 59, 60, 64, 65, 67, 68, 70, 74, 76, 79}|];
InstructorsAvailability = [|0, 1, |1, 1, |1, 1, |0, 1, |1, 0, |1, 0, |0, 1, |0, 1, |0, 1, |1, 1, |1, 1, |1, 1, |1, 1, |0, 0, |1, 1, |1, 1, |0, 1, |1, 1, |0, 1, |1, 1, |0, 0, |0, 0, |0, 1, |1, 1, |0, 0, |1, 1, |1, 1, |0, 0, |0, 0, |0, 0, |0, 1, |1, 1, |0, 0, |0, 0, |1, 1, |0, 0, |0, 1, |1, 1, |1, 1, |1, 0, |0, 1, |0, 1, |0, 0, |0, 0, |1, 1, |0, 0, |0, 1, |1, 1, |0, 0, |0, 0, |1, 1, |1, 1, |1, 1, |0, 0, |1, 1, |1, 1, |0, 0, |1, 1, |1, 1, |1, 1, |1, 1, |1, 1, |0, 1, |1, 0, |1, 1, |1, 1, |1, 1, |0, 1, |1, 0, |1, 1, |1, 0, |1, 1, |1, 1, |1, 0, |0, 0, |0, 1, |1, 0, |1, 1, |1, 1, |1, 1, |1, 1|];
StudentsProgramm = [1, 1, 1, 1, 1, 1, 1, 1, 1, 1];
StudentsDegree = [3, 3, 3, 3, 1, 1, 1, 3, 1, 3];
StudentsSupervisorId = [3, 31, 30, 15, 58, 57, 72, 40, 77, 11];
StudentsCourseIds = [{2, 3, 4, 5}, {2, 3, 4, 5}, {1, 2, 4, 5}, {1, 2, 3, 4}, {2, 3, 4, 5}, {2, 3, 4, 5}, {1, 2, 3, 5}, {1, 2, 4, 5}, {2, 3, 4, 5}, {1, 2, 4, 5}];
StudentsAvailability = [|0, 0, |0, 0, |1, 1, |1, 1, |0, 0, |1, 1, |0, 0, |0, 0, |1, 1, |0, 0|];
TheoryticalMinCard = [0, 0, 0, 0, 0, 0, 0, 0, 0, 1];
CoursesInstructorIds = [{2, 3, 4, 12, 13, 15, 18, 20, 21, 23, 24, 25, 26, 28, 29, 44, 46, 63, 75, 77}, {3, 5, 6, 14, 15, 18, 21, 22, 23, 26, 28, 29, 31, 33, 34, 35, 36, 37, 38, 40, 41, 43, 44, 46, 49, 52, 53, 56, 57, 58, 61, 62, 65, 67, 68, 71, 72, 74, 75, 76, 77, 79, 81}, {2, 4, 12, 14, 15, 22, 26, 28, 31, 44, 46, 57, 60, 62, 65, 69, 70, 76, 78}, {40, 79}, {1, 3, 6, 8, 10, 13, 14, 15, 16, 18, 21, 23, 24, 26, 28, 29, 30, 33, 37, 38, 41, 43, 44, 45, 48, 53, 55, 57, 58, 60, 62, 63, 64, 65, 66, 67, 70, 71, 76, 77, 80}];
RolesDemands = [9];
RolesContinuity = [];
ExamLen = [2, 2, 2, 2, 1, 1, 1, 2, 1, 2];
LunchTsMinLen = 0;
LunchStarts = [13..30, 53..64];
SupervisorAvailable = 5;
OptimalLunchLenght = [0, 1];
OptimalStartTs = [0, 0];
OptimalFinishTs = [2, 40];
MinimizeRooms = 200;
RolesSoftContinuity = [|1|2|];
SameDegreeInRoom = 0;
Mergeability = 2;
